4645
143 5
568 85
799 95
92 92
166 27
863 16
107 77
133 76
30 76
456 30
39 70
240 8
266 97
201 56
749 61
104 16
361 70
533 48
548 11
830 6
789 48
311 32
761 86
45 50
881 31
504 9
368 8
725 34
43 74
420 22
329 30
101 1
517 72
503 3
136 78
102 88
631 31
915 28
282 85
23 9
276 17
46 8
631 29
278 37
838 47
188 81
157 20
254 71
592 54
602 23
432 42
275 48
382 81
568 74
301 43
154 66
380 37
826 48
327 34
594 40
280 10
311 37
607 43
568 99
776 85
645 39
774 41
179 3
821 91
209 83
